data;

param n:=25;
param p:=3;
param r:=[1] 0 [2] 3 [3] 0 [4] 4 [5] 4 [6] 3 [7] 6 [8] 1 [9] 19 [10] 3 [11] 19 [12] 8 [13] 9 [14] 36 [15] 11 [16] 31 [17] 40 [18] 41 [19] 46 [20] 38 [21] 27 [22] 24 [23] 15 [24] 40 [25] 72 ;
param w:=[1] 10 [2] 15 [3] 68 [4] 16 [5] 81 [6] 82 [7] 32 [8] 46 [9] 82 [10] 38 [11] 43 [12] 91 [13] 32 [14] 49 [15] 32 [16] 72 [17] 98 [18] 33 [19] 25 [20] 38 [21] 63 [22] 87 [23] 45 [24] 77 [25] 72 ;

end;
